(set-info :smt-lib-version 2.6)
(set-logic QF_ALIA)
(set-info :source |
Benchmarks used in the followin paper:
Big proof engines as little proof engines: new results on rewrite-based satisfiability procedure
Alessandro Armando, Maria Paola Bonacina, Silvio Ranise, Stephan Schulz. 
PDPAR'05
http://www.ai.dist.unige.it/pdpar05/


|)
(set-info :category "crafted")
(set-info :status unsat)
(declare-fun a_12 () (Array Int Int))
(declare-fun a_15 () (Array Int Int))
(declare-fun a_18 () (Array Int Int))
(declare-fun a_21 () (Array Int Int))
(declare-fun a_24 () (Array Int Int))
(declare-fun a_26 () (Array Int Int))
(declare-fun a_28 () (Array Int Int))
(declare-fun a_3 () (Array Int Int))
(declare-fun a_30 () (Array Int Int))
(declare-fun a_32 () (Array Int Int))
(declare-fun a_34 () (Array Int Int))
(declare-fun a_37 () (Array Int Int))
(declare-fun a_6 () (Array Int Int))
(declare-fun a_9 () (Array Int Int))
(declare-fun e_0 () Int)
(declare-fun e_1 () Int)
(declare-fun e_10 () Int)
(declare-fun e_11 () Int)
(declare-fun e_13 () Int)
(declare-fun e_14 () Int)
(declare-fun e_16 () Int)
(declare-fun e_17 () Int)
(declare-fun e_19 () Int)
(declare-fun e_2 () Int)
(declare-fun e_20 () Int)
(declare-fun e_22 () Int)
(declare-fun e_23 () Int)
(declare-fun e_25 () Int)
(declare-fun e_27 () Int)
(declare-fun e_29 () Int)
(declare-fun e_31 () Int)
(declare-fun e_33 () Int)
(declare-fun e_35 () Int)
(declare-fun e_36 () Int)
(declare-fun e_4 () Int)
(declare-fun e_5 () Int)
(declare-fun e_7 () Int)
(declare-fun e_8 () Int)
(declare-fun a () (Array Int Int))
(declare-fun i () Int)
(assert (= a_12 (store a_9 e_10 e_11)))
(assert (= a_15 (store a_12 e_13 e_14)))
(assert (= a_18 (store a_15 e_16 e_17)))
(assert (= a_21 (store a_18 e_19 e_20)))
(assert (= a_24 (store a e_16 e_23)))
(assert (= a_26 (store a_24 e_13 e_25)))
(assert (= a_28 (store a_26 e_10 e_27)))
(assert (= a_3 (store a e_0 e_2)))
(assert (= a_30 (store a_28 e_7 e_29)))
(assert (= a_32 (store a_30 e_4 e_31)))
(assert (= a_34 (store a_32 e_0 e_33)))
(assert (= a_37 (store a_34 e_35 e_36)))
(assert (= a_6 (store a_3 e_4 e_5)))
(assert (= a_9 (store a_6 e_7 e_8)))
(assert (= e_0 (+ i 1)))
(assert (= e_1 (select a i)))
(assert (= e_10 (+ i 4)))
(assert (= e_11 (+ e_1 4)))
(assert (= e_13 (+ i 5)))
(assert (= e_14 (+ e_1 5)))
(assert (= e_16 (+ i 6)))
(assert (= e_17 (+ e_1 6)))
(assert (= e_19 (+ i 7)))
(assert (= e_2 (+ e_1 1)))
(assert (= e_20 (+ e_1 7)))
(assert (= e_22 (select a e_19)))
(assert (= e_23 (- e_22 1)))
(assert (= e_25 (- e_22 2)))
(assert (= e_27 (- e_22 3)))
(assert (= e_29 (- e_22 4)))
(assert (= e_31 (- e_22 5)))
(assert (= e_33 (- e_22 6)))
(assert (= e_35 (+ i 0)))
(assert (= e_36 (- e_22 7)))
(assert (= e_4 (+ i 2)))
(assert (= e_5 (+ e_1 2)))
(assert (= e_7 (+ i 3)))
(assert (= e_8 (+ e_1 3)))
(assert (= a_21 a_37))
(assert (not (= e_20 e_22)))
(check-sat)
(exit)
